solution status: time limit reached
objective value:                                  230
shell_i_one.thingy.devices[3].thingy.vp0                    1 	(obj:0)
shell_i_$_222__3                                    1 	(obj:0)
shell_j_$_170__3                                    1 	(obj:0)
shell_j_one.pump_a[1].flush                         1 	(obj:0)
shell_j_$_61__3                                     1 	(obj:0)
shell_j_$_202__3                                    1 	(obj:0)
shell_j_$_162__3                                    1 	(obj:0)
shell_i_$_172__3                                    1 	(obj:0)
shell_j_$_67__3                                     1 	(obj:0)
shell_j_$_164__3                                    1 	(obj:0)
shell_i_$_56__3                                     1 	(obj:0)
shell_j_$_56__3                                     1 	(obj:0)
shell_i_$_266__3                                    1 	(obj:0)
shell_i_$_39__3                                     1 	(obj:0)
shell_j_$_34__3                                     1 	(obj:0)
shell_i_$_191__3                                    1 	(obj:0)
shell_j_$_154__3                                    1 	(obj:0)
shell_j_$_181__3                                    1 	(obj:0)
shell_i_one.thingy.devices[0].thingy.column_upper                    1 	(obj:0)
shell_i_$_227__3                                    1 	(obj:0)
shell_i_$_163__3                                    1 	(obj:0)
shell_i_one.ctrl_s[1].flush                         1 	(obj:0)
shell_i_one.thingy.devices[1].thingy.vp3                    1 	(obj:0)
shell_i_$_245__3                                    1 	(obj:0)
shell_i_one.pump_b[1].flush                         1 	(obj:0)
shell_j_$_225__3                                    1 	(obj:0)
shell_j_$_219__3                                    1 	(obj:0)
shell_i_$_52__3                                     1 	(obj:0)
shell_j_$_249__3                                    1 	(obj:0)
shell_i_$_65__3                                     1 	(obj:0)
shell_j_$_255__3                                    1 	(obj:0)
shell_i_$_45__3                                     1 	(obj:0)
shell_i_$_265__3                                    1 	(obj:0)
shell_i_one.thingy.devices[1].thingy.column_upper                    1 	(obj:0)
shell_i_$_158__3                                    1 	(obj:0)
shell_i_$_224__3                                    1 	(obj:0)
shell_j_$_55__3                                     1 	(obj:0)
shell_j_$_43__3                                     1 	(obj:0)
shell_i_$_226__3                                    1 	(obj:0)
shell_i_$_263__3                                    1 	(obj:0)
shell_j_$_238__3                                    1 	(obj:0)
shell_i_$_244__3                                    1 	(obj:0)
shell_j_$_252__3                                    1 	(obj:0)
shell_j_$_49__3                                     1 	(obj:0)
shell_j_$_167__3                                    1 	(obj:0)
shell_j_$_46__3                                     1 	(obj:0)
shell_j_$_30__3                                     1 	(obj:0)
shell_j_$_267__3                                    1 	(obj:0)
shell_j_$_63__3                                     1 	(obj:0)
shell_j_$_33__3                                     1 	(obj:0)
shell_i_$_209__3                                    1 	(obj:0)
shell_j_$_54__3                                     1 	(obj:0)
shell_i_one.thingy.devices[2].thingy.column_upper                    1 	(obj:0)
shell_i_$_168__3                                    1 	(obj:0)
shell_j_$_260__3                                    1 	(obj:0)
shell_j_$_68__3                                     1 	(obj:0)
shell_i_$_36__3                                     1 	(obj:0)
shell_i_$_35__3                                     1 	(obj:0)
shell_i_$_258__3                                    1 	(obj:0)
shell_j_$_32__3                                     1 	(obj:0)
shell_j_$_176__3                                    1 	(obj:0)
shell_j_$_185__3                                    1 	(obj:0)
shell_j_$_268__3                                    1 	(obj:0)
shell_i_$_213__3                                    1 	(obj:0)
shell_i_$_243__3                                    1 	(obj:0)
shell_j_$_250__3                                    1 	(obj:0)
shell_j_one.pump_a[1].hole                          1 	(obj:0)
shell_j_$_186__3                                    1 	(obj:0)
shell_j_one.thingy.devices[0].thingy.vp0                    1 	(obj:0)
shell_j_one.thingy.devices[2].thingy.vp3                    1 	(obj:0)
shell_j_one.thingy.devices[2].thingy.vp0                    1 	(obj:0)
shell_j_$_58__3                                     1 	(obj:0)
shell_i_$_240__3                                    1 	(obj:0)
shell_i_$_59__3                                     1 	(obj:0)
shell_i_one.thingy.devices[0].thingy.vp3                    1 	(obj:0)
shell_j_$_53__3                                     1 	(obj:0)
shell_i_one.thingy.devices[3].thingy.column_upper                    1 	(obj:0)
shell_i_$_232__3                                    1 	(obj:0)
shell_j_$_183__3                                    1 	(obj:0)
shell_j_$_273__3                                    1 	(obj:0)
shell_j_one.thingy.devices[1].thingy.vp0                    1 	(obj:0)
shell_j_$_178__3                                    1 	(obj:0)
shell_j_$_60__3                                     1 	(obj:0)
shell_j_$_57__3                                     1 	(obj:0)
shell_j_$_204__3                                    1 	(obj:0)
shell_j_$_236__3                                    1 	(obj:0)
shell_j_$_211__3                                    1 	(obj:0)
shell_i_$_246__3                                    1 	(obj:0)
shell_i_$_71__3                                     1 	(obj:0)
shell_j_$_38__3                                     1 	(obj:0)
shell_j_$_203__3                                    1 	(obj:0)
shell_j_$_247__3                                    1 	(obj:0)
shell_i_$_37__3                                     1 	(obj:0)
shell_i_$_199__3                                    1 	(obj:0)
shell_i_$_254__3                                    1 	(obj:0)
shell_j_$_208__3                                    1 	(obj:0)
shell_i_one.pump_b[1].hole                          1 	(obj:0)
shell_j_$_184__3                                    1 	(obj:0)
shell_j_$_205__3                                    1 	(obj:0)
shell_j_$_217__3                                    1 	(obj:0)
shell_i_$_150__3                                    1 	(obj:0)
shell_j_$_62__3                                     1 	(obj:0)
shell_i_$_214__3                                    1 	(obj:0)
shell_j_$_64__3                                     1 	(obj:0)
shell_j_one.thingy.devices[3].thingy.vp3                    1 	(obj:0)
shell_i_$_42__3                                     1 	(obj:0)
shell_i_$_40__3                                     1 	(obj:0)
shell_j_$_165__3                                    1 	(obj:0)
shell_j_$_206__3                                    1 	(obj:0)
shell_j_$_31__3                                     1 	(obj:0)
shell_j_$_195__3                                    1 	(obj:0)
shell_j_$_41__3                                     1 	(obj:0)
shell_i_one.ctrl_s[1].hole                          1 	(obj:0)
shell_j_$_156__3                                    1 	(obj:0)
shell_j_$_173__3                                    1 	(obj:0)
shell_j_$_161__3                                    1 	(obj:0)
shell_j_$_197__3                                    1 	(obj:0)
$_267__3_z                                         -6 	(obj:0)
$_227__3_z                                          4 	(obj:0)
$_172__3_y                                          5 	(obj:0)
$_63__3_x                                           5 	(obj:0)
$_63__3_y                                          -5 	(obj:0)
$_63__3_z                                           6 	(obj:0)
$_172__3_z                                          4 	(obj:0)
$_163__3_x                                          5 	(obj:0)
$_33__3_y                                          -5 	(obj:0)
$_33__3_z                                          -8 	(obj:0)
$_163__3_y                                         -4 	(obj:0)
$_209__3_x                                          5 	(obj:0)
$_209__3_y                                         -3 	(obj:0)
$_209__3_z                                         -9 	(obj:0)
$_222__3_x                                          5 	(obj:0)
one.pump_a[1].flush_x                              -1 	(obj:0)
$_54__3_x                                          -5 	(obj:0)
$_54__3_y                                           5 	(obj:0)
$_54__3_z                                         -14 	(obj:0)
one.ctrl_s[1].flush_x                               5 	(obj:0)
one.ctrl_s[1].flush_y                               5 	(obj:0)
one.thingy.devices[2].thingy.column_upper_x                    5 	(obj:0)
one.thingy.devices[2].thingy.column_upper_y                    1 	(obj:0)
one.thingy.devices[2].thingy.column_upper_z                   -3 	(obj:0)
one.ctrl_s[1].flush_z                              -9 	(obj:0)
$_67__3_x                                           5 	(obj:0)
$_168__3_x                                          5 	(obj:0)
$_168__3_y                                          4 	(obj:0)
$_168__3_z                                         -4 	(obj:0)
$_67__3_y                                           5 	(obj:0)
one.thingy.devices[1].thingy.vp3_x                    5 	(obj:0)
$_260__3_x                                          1 	(obj:0)
$_260__3_y                                          5 	(obj:0)
$_260__3_z                                         -8 	(obj:0)
one.thingy.devices[1].thingy.vp3_y                    5 	(obj:0)
one.thingy.devices[1].thingy.vp3_z                   -3 	(obj:0)
$_68__3_y                                           5 	(obj:0)
$_68__3_z                                          -3 	(obj:0)
$_67__3_z                                          -6 	(obj:0)
one.pump_a[1].flush_y                               5 	(obj:0)
$_36__3_x                                           5 	(obj:0)
$_36__3_y                                           5 	(obj:0)
$_36__3_z                                         -10 	(obj:0)
$_245__3_x                                          5 	(obj:0)
$_245__3_y                                          4 	(obj:0)
$_35__3_x                                           5 	(obj:0)
$_35__3_y                                          -1 	(obj:0)
$_35__3_z                                          -4 	(obj:0)
$_245__3_z                                         -5 	(obj:0)
one.pump_a[1].flush_z                             -10 	(obj:0)
$_258__3_x                                         -5 	(obj:0)
$_258__3_y                                          1 	(obj:0)
$_258__3_z                                        -10 	(obj:0)
$_164__3_x                                         -5 	(obj:0)
one.pump_b[1].flush_x                               5 	(obj:0)
$_32__3_x                                           5 	(obj:0)
$_32__3_y                                          -5 	(obj:0)
$_32__3_z                                         -10 	(obj:0)
one.pump_b[1].flush_y                               1 	(obj:0)
$_176__3_y                                          5 	(obj:0)
$_176__3_z                                         -4 	(obj:0)
$_164__3_y                                         -5 	(obj:0)
$_164__3_z                                         -4 	(obj:0)
$_185__3_y                                          5 	(obj:0)
$_185__3_z                                          1 	(obj:0)
$_225__3_x                                          3 	(obj:0)
$_225__3_y                                          5 	(obj:0)
$_268__3_x                                         -1 	(obj:0)
$_268__3_y                                          5 	(obj:0)
$_268__3_z                                          2 	(obj:0)
$_225__3_z                                         -5 	(obj:0)
$_222__3_y                                          1 	(obj:0)
$_213__3_x                                          5 	(obj:0)
$_213__3_z                                         -2 	(obj:0)
$_222__3_z                                         -1 	(obj:0)
$_243__3_x                                         -5 	(obj:0)
$_243__3_y                                          5 	(obj:0)
$_243__3_z                                         -4 	(obj:0)
$_219__3_y                                          5 	(obj:0)
$_219__3_z                                         -2 	(obj:0)
$_250__3_x                                         -2 	(obj:0)
$_250__3_y                                          5 	(obj:0)
$_250__3_z                                         -9 	(obj:0)
$_56__3_x                                          -5 	(obj:0)
$_56__3_y                                           5 	(obj:0)
one.pump_a[1].hole_x                                4 	(obj:0)
one.pump_a[1].hole_y                                5 	(obj:0)
one.pump_a[1].hole_z                               -2 	(obj:0)
$_52__3_x                                          -5 	(obj:0)
$_52__3_y                                          -5 	(obj:0)
$_186__3_x                                          5 	(obj:0)
$_186__3_y                                         -5 	(obj:0)
$_186__3_z                                          7 	(obj:0)
$_56__3_z                                          -6 	(obj:0)
one.thingy.devices[0].thingy.vp0_x                    3 	(obj:0)
one.thingy.devices[0].thingy.vp0_y                    5 	(obj:0)
one.thingy.devices[0].thingy.vp0_z                   -4 	(obj:0)
$_61__3_x                                           3 	(obj:0)
$_249__3_x                                          3 	(obj:0)
one.thingy.devices[2].thingy.vp3_x                    5 	(obj:0)
one.thingy.devices[2].thingy.vp3_y                    5 	(obj:0)
one.thingy.devices[2].thingy.vp3_z                   -7 	(obj:0)
$_249__3_y                                          5 	(obj:0)
$_249__3_z                                        -12 	(obj:0)
one.thingy.devices[2].thingy.vp0_x                   -3 	(obj:0)
one.thingy.devices[2].thingy.vp0_y                    5 	(obj:0)
one.thingy.devices[2].thingy.vp0_z                  -10 	(obj:0)
$_61__3_y                                           5 	(obj:0)
$_266__3_x                                          5 	(obj:0)
$_58__3_x                                          -3 	(obj:0)
$_58__3_y                                           5 	(obj:0)
$_58__3_z                                         -11 	(obj:0)
$_65__3_x                                           5 	(obj:0)
$_65__3_y                                          -3 	(obj:0)
$_240__3_x                                          5 	(obj:0)
$_240__3_y                                         -3 	(obj:0)
$_240__3_z                                         -7 	(obj:0)
$_65__3_z                                           8 	(obj:0)
$_266__3_y                                          1 	(obj:0)
$_59__3_x                                           5 	(obj:0)
$_59__3_y                                           1 	(obj:0)
$_59__3_z                                         -12 	(obj:0)
$_266__3_z                                         -9 	(obj:0)
$_255__3_x                                         -1 	(obj:0)
one.thingy.devices[0].thingy.vp3_x                    5 	(obj:0)
one.thingy.devices[0].thingy.vp3_y                    4 	(obj:0)
one.thingy.devices[0].thingy.vp3_z                   -2 	(obj:0)
$_255__3_y                                          5 	(obj:0)
$_255__3_z                                         -4 	(obj:0)
$_53__3_x                                          -5 	(obj:0)
$_53__3_y                                           5 	(obj:0)
$_53__3_z                                         -12 	(obj:0)
$_61__3_z                                          -8 	(obj:0)
one.thingy.devices[3].thingy.vp0_z                  -14 	(obj:0)
one.thingy.devices[3].thingy.column_upper_x                    5 	(obj:0)
one.thingy.devices[3].thingy.column_upper_y                    2 	(obj:0)
one.thingy.devices[3].thingy.column_upper_z                   -4 	(obj:0)
$_45__3_x                                           5 	(obj:0)
$_45__3_y                                          -3 	(obj:0)
$_232__3_x                                          5 	(obj:0)
$_232__3_y                                         -3 	(obj:0)
$_232__3_z                                          2 	(obj:0)
$_45__3_z                                          -1 	(obj:0)
$_39__3_x                                           5 	(obj:0)
$_183__3_x                                          5 	(obj:0)
$_183__3_y                                         -5 	(obj:0)
$_183__3_z                                         17 	(obj:0)
$_39__3_y                                           1 	(obj:0)
$_265__3_x                                          5 	(obj:0)
$_273__3_x                                          5 	(obj:0)
$_273__3_y                                          5 	(obj:0)
$_273__3_z                                          4 	(obj:0)
$_265__3_y                                         -5 	(obj:0)
$_265__3_z                                          4 	(obj:0)
one.thingy.devices[1].thingy.vp0_y                    5 	(obj:0)
one.thingy.devices[1].thingy.vp0_z                   -6 	(obj:0)
$_39__3_z                                          -2 	(obj:0)
one.thingy.devices[3].thingy.vp0_x                   -5 	(obj:0)
$_178__3_x                                          1 	(obj:0)
$_178__3_y                                          5 	(obj:0)
$_178__3_z                                         -2 	(obj:0)
one.thingy.devices[1].thingy.column_upper_x                    5 	(obj:0)
one.thingy.devices[1].thingy.column_upper_y                    5 	(obj:0)
$_60__3_x                                          -5 	(obj:0)
$_60__3_y                                          -5 	(obj:0)
$_60__3_z                                         -14 	(obj:0)
one.thingy.devices[1].thingy.column_upper_z                    1 	(obj:0)
$_202__3_x                                          5 	(obj:0)
$_57__3_y                                           5 	(obj:0)
$_57__3_z                                         -18 	(obj:0)
$_158__3_x                                          5 	(obj:0)
$_204__3_x                                          5 	(obj:0)
$_204__3_y                                         -5 	(obj:0)
$_158__3_y                                         -5 	(obj:0)
$_158__3_z                                         -2 	(obj:0)
$_236__3_x                                          1 	(obj:0)
$_236__3_y                                          5 	(obj:0)
$_236__3_z                                          6 	(obj:0)
$_34__3_y                                           5 	(obj:0)
$_34__3_z                                          -8 	(obj:0)
$_211__3_x                                          1 	(obj:0)
$_211__3_y                                          5 	(obj:0)
$_224__3_x                                          5 	(obj:0)
$_224__3_y                                         -1 	(obj:0)
$_246__3_x                                          5 	(obj:0)
$_246__3_y                                         -5 	(obj:0)
$_246__3_z                                        -12 	(obj:0)
$_224__3_z                                          5 	(obj:0)
$_202__3_y                                          5 	(obj:0)
$_71__3_x                                          -5 	(obj:0)
$_71__3_y                                           1 	(obj:0)
$_71__3_z                                          -8 	(obj:0)
$_202__3_z                                          6 	(obj:0)
$_55__3_x                                           5 	(obj:0)
$_38__3_y                                          -5 	(obj:0)
$_38__3_z                                          -2 	(obj:0)
$_55__3_y                                           5 	(obj:0)
$_55__3_z                                         -16 	(obj:0)
$_203__3_x                                          5 	(obj:0)
$_203__3_y                                         -5 	(obj:0)
$_203__3_z                                         10 	(obj:0)
$_191__3_x                                          5 	(obj:0)
$_191__3_y                                          3 	(obj:0)
$_247__3_x                                          1 	(obj:0)
$_247__3_y                                          5 	(obj:0)
$_247__3_z                                        -10 	(obj:0)
$_43__3_x                                           1 	(obj:0)
$_43__3_y                                          -5 	(obj:0)
$_37__3_x                                           5 	(obj:0)
$_37__3_y                                           1 	(obj:0)
$_37__3_z                                           7 	(obj:0)
$_43__3_z                                           9 	(obj:0)
$_191__3_z                                          5 	(obj:0)
$_199__3_x                                          5 	(obj:0)
$_199__3_y                                         -5 	(obj:0)
$_199__3_z                                          5 	(obj:0)
$_170__3_x                                          5 	(obj:0)
$_226__3_x                                          5 	(obj:0)
$_254__3_x                                          5 	(obj:0)
$_254__3_y                                         -4 	(obj:0)
$_254__3_z                                        -14 	(obj:0)
$_226__3_y                                          5 	(obj:0)
$_208__3_x                                          5 	(obj:0)
$_208__3_y                                          5 	(obj:0)
$_208__3_z                                         -4 	(obj:0)
$_170__3_y                                          5 	(obj:0)
$_154__3_x                                         -5 	(obj:0)
one.pump_b[1].hole_x                                5 	(obj:0)
one.pump_b[1].hole_y                                2 	(obj:0)
$_263__3_x                                          5 	(obj:0)
$_263__3_y                                          1 	(obj:0)
$_184__3_x                                          5 	(obj:0)
$_184__3_y                                          5 	(obj:0)
$_184__3_z                                         -5 	(obj:0)
$_263__3_z                                         -4 	(obj:0)
$_154__3_y                                          5 	(obj:0)
$_205__3_x                                         -5 	(obj:0)
$_205__3_y                                         -5 	(obj:0)
$_205__3_z                                        -12 	(obj:0)
$_154__3_z                                         21 	(obj:0)
$_238__3_x                                         -5 	(obj:0)
$_217__3_x                                         -2 	(obj:0)
$_217__3_y                                          5 	(obj:0)
$_217__3_z                                         -8 	(obj:0)
$_238__3_y                                         -5 	(obj:0)
$_238__3_z                                         -8 	(obj:0)
$_150__3_x                                          5 	(obj:0)
$_150__3_z                                          5 	(obj:0)
$_162__3_x                                         -5 	(obj:0)
$_162__3_y                                          5 	(obj:0)
$_62__3_x                                           3 	(obj:0)
$_62__3_y                                           5 	(obj:0)
$_62__3_z                                          -2 	(obj:0)
$_244__3_x                                          5 	(obj:0)
$_244__3_y                                         -5 	(obj:0)
$_214__3_x                                          5 	(obj:0)
$_214__3_y                                          1 	(obj:0)
$_214__3_z                                          1 	(obj:0)
$_244__3_z                                          3 	(obj:0)
$_181__3_x                                          5 	(obj:0)
$_64__3_x                                          -5 	(obj:0)
$_64__3_y                                          -5 	(obj:0)
$_64__3_z                                          17 	(obj:0)
$_181__3_y                                          5 	(obj:0)
$_252__3_x                                          2 	(obj:0)
one.thingy.devices[3].thingy.vp3_x                    2 	(obj:0)
one.thingy.devices[3].thingy.vp3_y                    5 	(obj:0)
one.thingy.devices[3].thingy.vp3_z                   -8 	(obj:0)
$_252__3_y                                          5 	(obj:0)
$_252__3_z                                        -10 	(obj:0)
$_42__3_x                                           5 	(obj:0)
$_42__3_y                                          -5 	(obj:0)
$_42__3_z                                           1 	(obj:0)
$_181__3_z                                         -1 	(obj:0)
$_162__3_z                                          6 	(obj:0)
$_40__3_x                                           5 	(obj:0)
$_40__3_y                                           3 	(obj:0)
$_40__3_z                                           4 	(obj:0)
$_49__3_y                                           5 	(obj:0)
$_165__3_x                                         -2 	(obj:0)
$_165__3_y                                          5 	(obj:0)
$_165__3_z                                         -2 	(obj:0)
$_49__3_z                                           2 	(obj:0)
$_170__3_z                                          2 	(obj:0)
$_206__3_x                                          5 	(obj:0)
$_206__3_y                                          5 	(obj:0)
$_206__3_z                                        -12 	(obj:0)
one.thingy.devices[0].thingy.column_upper_x                    5 	(obj:0)
$_167__3_x                                          5 	(obj:0)
$_31__3_x                                          -2 	(obj:0)
$_31__3_y                                           5 	(obj:0)
$_31__3_z                                         -10 	(obj:0)
$_167__3_y                                          5 	(obj:0)
$_167__3_z                                         -2 	(obj:0)
$_195__3_y                                         -5 	(obj:0)
$_195__3_z                                          5 	(obj:0)
one.thingy.devices[0].thingy.column_upper_y                    1 	(obj:0)
one.thingy.devices[0].thingy.column_upper_z                    2 	(obj:0)
$_41__3_x                                           5 	(obj:0)
$_41__3_y                                          -5 	(obj:0)
$_41__3_z                                          -1 	(obj:0)
$_46__3_x                                           1 	(obj:0)
$_46__3_y                                          -5 	(obj:0)
one.ctrl_s[1].hole_x                                5 	(obj:0)
one.ctrl_s[1].hole_y                                1 	(obj:0)
one.ctrl_s[1].hole_z                               -6 	(obj:0)
$_46__3_z                                           3 	(obj:0)
one.thingy.devices[3].thingy.vp0_y                    3 	(obj:0)
$_156__3_x                                          5 	(obj:0)
$_156__3_y                                         -5 	(obj:0)
$_156__3_z                                        -14 	(obj:0)
$_172__3_x                                         -5 	(obj:0)
$_30__3_x                                          -1 	(obj:0)
$_173__3_x                                          2 	(obj:0)
$_173__3_y                                          5 	(obj:0)
$_173__3_z                                         -2 	(obj:0)
$_30__3_y                                           5 	(obj:0)
$_30__3_z                                          18 	(obj:0)
$_161__3_x                                         -1 	(obj:0)
$_161__3_y                                         -5 	(obj:0)
$_161__3_z                                          4 	(obj:0)
$_227__3_x                                          5 	(obj:0)
$_227__3_y                                         -1 	(obj:0)
$_197__3_y                                         -5 	(obj:0)
$_267__3_x                                         -1 	(obj:0)
$_267__3_y                                          5 	(obj:0)
x581                                                2 	(obj:1)
x582                                                2 	(obj:1)
x583                                                2 	(obj:1)
x589                                                2 	(obj:1)
x595                                                1 	(obj:1)
x613                                                4 	(obj:1)
x621                                                4 	(obj:1)
x625                                                4 	(obj:1)
x627                                                2 	(obj:1)
x628                                                1 	(obj:1)
x637                                                4 	(obj:1)
x642                                                4 	(obj:1)
x658                                                2 	(obj:1)
x661                                                4 	(obj:1)
x670                                                4 	(obj:1)
x675                                                2 	(obj:1)
x678                                                4 	(obj:1)
x685                                                4 	(obj:1)
x687                                                4 	(obj:1)
x691                                                4 	(obj:1)
x692                                                4 	(obj:1)
x697                                                4 	(obj:1)
x719                                                4 	(obj:1)
x721                                                4 	(obj:1)
x732                                                2 	(obj:1)
x736                                                4 	(obj:1)
x739                                                4 	(obj:1)
x745                                                4 	(obj:1)
x754                                                4 	(obj:1)
x764                                                4 	(obj:1)
x766                                                3 	(obj:1)
x767                                                4 	(obj:1)
x769                                                4 	(obj:1)
x776                                                4 	(obj:1)
x787                                                4 	(obj:1)
x796                                                2 	(obj:1)
x799                                                2 	(obj:1)
x800                                                2 	(obj:1)
x802                                                3 	(obj:1)
x811                                                4 	(obj:1)
x814                                                4 	(obj:1)
x819                                                2 	(obj:1)
x820                                                4 	(obj:1)
x829                                                2 	(obj:1)
x832                                                2 	(obj:1)
x845                                                4 	(obj:1)
x847                                                4 	(obj:1)
x848                                                4 	(obj:1)
x856                                                4 	(obj:1)
x859                                                4 	(obj:1)
x863                                                4 	(obj:1)
x865                                                4 	(obj:1)
x867                                                4 	(obj:1)
x873                                                4 	(obj:1)
x877                                                2 	(obj:1)
x886                                                4 	(obj:1)
x892                                                3 	(obj:1)
x893                                                4 	(obj:1)
x895                                                4 	(obj:1)
x898                                                4 	(obj:1)
x902                                                3 	(obj:1)
x910                                                4 	(obj:1)
x911                                                4 	(obj:1)
x917                                                3 	(obj:1)
x920                                                4 	(obj:1)
x925                                                4 	(obj:1)
x932                                                3 	(obj:1)
x935                                                4 	(obj:1)
